[[22, 31, 18, 32, 45, 19, 10, 9, 8, 41, 3, 17, 21, 7, 2, 42, 30, 23, 20, 50, 16, 29, 47], [26, 28, 27, 13, 14, 52, 11, 12, 51, 33, 43, 4, 6, 25, 46, 48, 24, 5, 15, 38, 40, 37, 39, 36, 35, 34, 44, 49]]